14 134 197 164 17 150 113 186 146 70 116 59 100 44 85 87 195 122 74 26 140 139 35 78 172 65 88 10 168 123 9 66 30 54 182 39 143 129 165 49 154 132 131 45 11 111 130 56 114 124 29 177 105 196 47 61 104 181 31 50 135 160 77 187 107 156 158 32 36 155 137 60 2 71 169 58 43 22 180 1 97 57 75 161 138 25 12 110 37 193 63 99 73 133 80 121 20 106 108 7 176 53 86 13 0 136 166 157 34 48 163 198 142 79 147 179 52 101 151 171 93 69 19 194 185 89 40 82 103 62 41 84 128 95 28 153 126 184 15 199 90 192 21 149 125 83 112 27 6 144 33 117 94 145 178 5 51 119 127 175 38 188 115 141 189 109 98 4 170 148 102 24 68 8 118 183 18 3 23 42 67 174 152 120 64 76 190 173 96 16 162 81 55 91 46 167 92 191 72 159 

